3556,3557,3948,3949,3950,3976,3977,4312,4340,4341,4368,4369,4732,4760,4761;3558,3585,3586,3587,3614,3951,3978,3979,4005,4006,4007,4370;2438,2801,2802,2803,2828,2829,2830,2831,2856,2857,2858,3192,3193,3194,3195,3220,3221,3222,3223,3248,3249,3250,3251,3559,3584,3612,3613,3615,4004;2049,2050,2077,2078,2439,2440,2441,2442,2443,2468,2469,2470,2471,2804,2805,2806,2832,2833,2834,2835,2859,2860,2861,2862,2863,3196,3197,3224,3225,3226,3252,3253,3254,3588,3616,3617,4008;1687,1688,2051,2052,2053,2079,2080,2081,2107,2108,2444,2472,2499;934,935,962,1296,1297,1298,1299,1325,1326,1327,1354,1355,1689,1690,1691,1716,1717,1718,1719,1745,1746,2082,2109,2110,2473,2500,2501;2864;543,544,545,546,571,572,573,574,936,937,938,963,964,965,1328,1356,1747;184,547,575,576,966